qbf_easy_train/easy_4546_UNSAT.qdimacs
p cnf 48 148
a 33 18 22 0
e 1 2 3 4 5 6 7 8 9 10 11 12 13 14 15 16 17 19 20 21 23 24 25 26 27 28 29 30 31 32 34 35 36 37 38 39 40 41 42 43 44 45 46 47 48 0
-3 1 0
-3 2 0
-1 -2 3 0
-5 3 0
-5 4 0
-3 -4 5 0
5 -6 -7 0
-5 6 -7 0
5 6 7 0
-5 -6 7 0
8 -9 0
-8 -9 0
-9 3 -10 0
9 -3 -10 0
-9 -3 10 0
9 3 10 0
12 -10 0
12 -11 0
10 11 -12 0
-13 -7 0
-13 12 0
7 -12 13 0
14 1 0
14 -13 0
-1 13 -14 0
-16 -14 0
-16 15 0
14 -15 16 0
-17 -13 -18 0
17 13 -18 0
-17 13 18 0
17 -13 18 0
19 16 0
19 -18 0
-16 18 -19 0
20 7 0
20 1 0
-7 -1 -20 0
21 6 0
21 -3 0
-6 3 -21 0
-22 20 0
-22 -21 0
-20 21 22 0
-19 -22 -23 0
19 22 -23 0
-19 22 23 0
19 -22 23 0
-1 2 -24 0
1 -2 -24 0
-1 -2 24 0
1 2 24 0
-25 1 0
-25 24 0
-1 -24 25 0
26 -21 0
26 -24 0
21 24 -26 0
25 26 -27 0
-25 -26 -27 0
25 -26 27 0
-25 26 27 0
24 -6 -28 0
-24 6 -28 0
24 6 28 0
-24 -6 28 0
-29 14 0
-29 28 0
-14 -28 29 0
30 -24 0
30 14 0
24 -14 -30 0
-31 29 0
-31 -30 0
-29 30 31 0
-1 -13 -32 0
1 13 -32 0
-1 13 32 0
1 -13 32 0
5 8 -33 0
-5 -8 -33 0
5 -8 33 0
-5 8 33 0
34 -32 0
34 -33 0
32 33 -34 0
-21 2 -35 0
21 -2 -35 0
-21 -2 35 0
21 2 35 0
36 35 0
36 -9 0
-35 9 -36 0
37 3 0
37 36 0
-3 -36 -37 0
3 8 -38 0
-3 -8 -38 0
3 -8 38 0
-3 8 38 0
39 -38 0
39 -20 0
38 20 -39 0
37 -39 -40 0
-37 39 -40 0
37 39 40 0
-37 -39 40 0
-34 -40 -41 0
34 40 -41 0
-34 40 41 0
34 -40 41 0
42 2 0
42 17 0
-2 -17 -42 0
-43 -41 0
-43 -42 0
41 42 43 0
44 35 0
44 -11 0
-35 11 -44 0
-43 44 -45 0
43 -44 -45 0
-43 -44 45 0
43 44 45 0
-46 31 0
-46 -45 0
-31 45 46 0
47 27 0
47 46 0
-27 -46 -47 0
23 -47 -48 0
-23 47 -48 0
23 47 48 0
-23 -47 48 0
-10 4 22 20 23 0
46 -18 28 0
38 -11 -30 -18 13 -45 0
21 -13 36 -45 16 0
33 -27 45 -34 44 0
20 -2 24 40 0
-7 -30 19 13 0
-33 -42 -37 23 -14 39 9 -10 0
35 19 12 -30 0
-1 25 28 0
-1 24 -6 0
-47 27 15 44 0
-3 8 44 -18 17 -37 47 0
48 0
