sat_easy_train/easy_4546_UNSAT.dimacs
p cnf 99 322
2 1 0
2 -1 0
2 3 -4 0
-2 -3 -4 0
2 -3 4 0
-2 3 4 0
9 7 0
9 -8 0
-7 8 -9 0
10 -6 0
10 9 0
6 -9 -10 0
5 -10 -11 0
-5 10 -11 0
5 10 11 0
-5 -10 11 0
13 -12 0
13 9 0
12 -9 -13 0
-11 -13 -14 0
11 13 -14 0
-11 13 14 0
11 -13 14 0
-16 8 0
-16 15 0
-8 -15 16 0
-18 -2 0
-18 -17 0
2 17 18 0
19 18 0
19 8 0
-18 -8 -19 0
19 2 -20 0
-19 -2 -20 0
19 -2 20 0
-19 2 20 0
-16 20 -21 0
16 -20 -21 0
-16 -20 21 0
16 20 21 0
-22 14 0
-22 -21 0
-14 21 22 0
23 -9 -24 0
-23 9 -24 0
23 9 24 0
-23 -9 24 0
25 -15 0
25 7 0
15 -7 -25 0
26 25 0
26 12 0
-25 -12 -26 0
27 -8 0
27 -26 0
8 26 -27 0
28 -24 0
28 -27 0
24 27 -28 0
29 28 0
29 10 0
-28 -10 -29 0
30 -22 0
30 -29 0
22 29 -30 0
31 -25 0
31 24 0
25 -24 -31 0
8 -31 -32 0
-8 31 -32 0
8 31 32 0
-8 -31 32 0
33 -30 0
33 -32 0
30 32 -33 0
34 -4 0
34 33 0
4 -33 -34 0
36 -35 0
36 6 0
35 -6 -36 0
36 25 -37 0
-36 -25 -37 0
36 -25 37 0
-36 25 37 0
-25 -27 -38 0
25 27 -38 0
-25 27 38 0
25 -27 38 0
-39 38 0
-39 24 0
-38 -24 39 0
37 -39 -40 0
-37 39 -40 0
37 39 40 0
-37 -39 40 0
-41 -34 0
-41 40 0
34 -40 41 0
-23 -42 -43 0
23 42 -43 0
-23 42 43 0
23 -42 43 0
-44 41 0
-44 -43 0
-41 43 44 0
13 8 -45 0
-13 -8 -45 0
13 -8 45 0
-13 8 45 0
46 7 0
46 -9 0
-7 9 -46 0
-47 -18 0
-47 46 0
18 -46 47 0
48 -47 0
48 26 0
47 -26 -48 0
49 45 0
49 -48 0
-45 48 -49 0
50 23 0
50 -42 0
-23 42 -50 0
-51 6 0
-51 50 0
-6 -50 51 0
35 -51 -52 0
-35 51 -52 0
35 51 52 0
-35 -51 52 0
-53 49 0
-53 52 0
-49 -52 53 0
44 53 -54 0
-44 -53 -54 0
44 -53 54 0
-44 53 54 0
55 -5 0
55 17 0
5 -17 -55 0
-56 23 0
-56 -9 0
-23 9 56 0
56 9 -57 0
-56 -9 -57 0
56 -9 57 0
-56 9 57 0
-38 57 -58 0
38 -57 -58 0
-38 -57 58 0
38 57 58 0
59 -42 -60 0
-59 42 -60 0
59 42 60 0
-59 -42 60 0
58 60 -61 0
-58 -60 -61 0
58 -60 61 0
-58 60 61 0
-62 55 0
-62 61 0
-55 -61 62 0
64 -31 0
64 -63 0
31 63 -64 0
10 -64 -65 0
-10 64 -65 0
10 64 65 0
-10 -64 65 0
10 65 -66 0
-10 -65 -66 0
10 -65 66 0
-10 65 66 0
-67 -36 0
-67 -7 0
36 7 67 0
-51 5 -68 0
51 -5 -68 0
-51 -5 68 0
51 5 68 0
67 68 -69 0
-67 -68 -69 0
67 -68 69 0
-67 68 69 0
70 -38 0
70 39 0
38 -39 -70 0
-70 6 -71 0
70 -6 -71 0
-70 -6 71 0
70 6 71 0
72 69 0
72 71 0
-69 -71 -72 0
-73 66 0
-73 -72 0
-66 72 73 0
-74 62 0
-74 -73 0
-62 73 74 0
23 -47 -75 0
-23 47 -75 0
23 47 75 0
-23 -47 75 0
76 75 0
76 18 0
-75 -18 -76 0
77 -46 0
77 -76 0
46 76 -77 0
78 -77 0
78 7 0
77 -7 -78 0
38 37 -79 0
-38 -37 -79 0
38 -37 79 0
-38 37 79 0
-80 -42 0
-80 -25 0
42 25 80 0
-81 79 0
-81 80 0
-79 -80 81 0
-84 -82 0
-84 -83 0
82 83 84 0
11 84 -85 0
-11 -84 -85 0
11 -84 85 0
-11 84 85 0
-86 -85 0
-86 39 0
85 -39 86 0
81 86 -87 0
-81 -86 -87 0
81 -86 87 0
-81 86 87 0
78 87 -88 0
-78 -87 -88 0
78 -87 88 0
-78 87 88 0
89 -74 0
89 -88 0
74 88 -89 0
80 7 -90 0
-80 -7 -90 0
80 -7 90 0
-80 7 90 0
91 -89 0
91 90 0
89 -90 -91 0
54 -91 -92 0
-54 91 -92 0
54 91 92 0
-54 -91 92 0
56 46 -93 0
-56 -46 -93 0
56 -46 93 0
-56 46 93 0
-37 -94 0
37 -94 0
-95 -77 0
-95 -94 0
77 94 95 0
-93 95 -96 0
93 -95 -96 0
-93 -95 96 0
93 95 96 0
-97 -35 0
-97 -9 0
35 9 97 0
98 -96 0
98 97 0
96 -97 -98 0
99 92 0
99 -98 0
-92 98 -99 0
-23 52 -40 70 11 60 0
57 4 36 8 45 0
-72 -70 -27 -30 59 82 0
5 2 21 -75 74 0
-51 22 0
-29 19 -35 -1 -61 47 0
-13 62 36 99 0
-45 67 96 -65 0
49 37 88 -72 -77 0
-88 -30 -52 -12 -83 -15 0
97 -2 -26 -95 0
35 -85 -42 50 88 2 0
-83 -34 35 29 -24 71 0
-39 20 0
-65 -64 59 75 -81 0
45 48 -12 37 91 0
-99 86 -88 0
98 42 38 31 -86 58 0
44 97 -37 91 -65 0
94 -7 -47 -79 61 -1 0
65 96 67 -45 -9 20 0
-45 34 -21 -46 0
-30 19 -45 74 0
68 -78 -24 75 39 0
-48 69 -21 41 -83 0
89 26 27 23 41 0
96 81 79 60 98 0
60 -50 -81 69 0
62 3 -11 68 -93 0
-82 -55 57 77 -22 0
-30 -47 52 40 6 21 0
47 93 -79 68 -3 -32 0
59 -83 0
-59 -49 42 37 -53 0
13 45 71 -2 66 79 0
-99 -75 -83 76 0
-31 67 40 0
-8 65 0
60 17 86 -88 -64 74 0
-91 -96 0
-87 -17 54 57 0
27 -48 0
99 0
